M = 4;
N = 8;

e = [22,18,18,45,45,45,45,3];
p = [2,1,1,1];

c = [|0,4,4,0,0,0,0,0,
     |0,0,0,2,2,0,0,0,
     |0,0,0,0,0,2,2,0,
     |0,0,0,0,0,3,0,2,
     |0,0,0,0,0,0,3,2,
     |0,0,0,3,0,0,0,2,
     |0,0,0,0,3,0,0,2,
     |0,0,0,0,0,0,0,0|];

cc = [|1,1,1,1,
      |1,1,1,1,
      |1,1,1,1,
      |1,1,1,1|];

% cc = [|1,1,10,100,
%      |1,1,100,100,
%      |10,100,1,1,
%      |100,100,1,1|];

InvRref= 4;
Pfrom = 1;
Pto = 1;